(Cost-function, node_ordering) that gave the best result for SCI = (0, 3)
MST
Route #1: 46 118 17 18 112 126 127 128 129 113 116 131 117 119 130 65 19
Route #2: 132 125 111 124 123 121 122 110 81 71
Route #3: 120 109 108 107 106 114 115
Route #4: 72 47 75 1 48 32 34 49 62 61 60 59 31 30 28 27 25 22 24 23
Route #5: 66 78 133 33 80 68 69 70 67 79 63 64 77 76 134 74 73
Route #6: 50 51 52 53 102 104 101 100 98 99 36 35 37 95 38 96 97 105 57 56 103 55 54 58
Route #7: 82 20 83 85 84 86 87 89 90 92 16 13 15 88 14 11 12 10 9 8 7 6 5 4 2 42 41 3 40 44 43 39 45 94 93 29 26 21 91
Cost 1197.07
VALID solution
Total execution time = 13.8456 s
